Problem:    mdvsp
Rows:       16
Columns:    43 (42 integer, 42 binary)
Non-zeros:  130
Status:     INTEGER OPTIMAL
Objective:  obj = 20387 (MINimum)

   No.   Row name        Activity     Lower bound   Upper bound
------ ------------    ------------- ------------- -------------
     1 obj                     20387                             
     2 forca                       0            -0             = 
     3 R0[3]                       1             1             = 
     4 R0[4]                       1             1             = 
     5 R0[5]                       1             1             = 
     6 R0[6]                       1             1             = 
     7 R1[1]                       0                          18 
     8 R1[2]                       0                          26 
     9 R2[1,3]                     0            -0             = 
    10 R2[1,4]                     0            -0             = 
    11 R2[1,5]                     0            -0             = 
    12 R2[1,6]                     0            -0             = 
    13 R2[2,3]                     0            -0             = 
    14 R2[2,4]                     0            -0             = 
    15 R2[2,5]                     0            -0             = 
    16 R2[2,6]                     0            -0             = 

   No. Column name       Activity     Lower bound   Upper bound
------ ------------    ------------- ------------- -------------
     1 Xij[1,1,3]   *              0             0             1 
     2 Xij[1,1,4]   *              0             0             1 
     3 Xij[1,1,5]   *              0             0             1 
     4 Xij[1,1,6]   *              0             0             1 
     5 Xij[1,2,3]   *              0             0             1 
     6 Xij[1,2,4]   *              0             0             1 
     7 Xij[1,2,5]   *              0             0             1 
     8 Xij[1,2,6]   *              0             0             1 
     9 Xij[1,3,1]   *              0             0             1 
    10 Xij[1,3,2]   *              0             0             1 
    11 Xij[1,3,5]   *              0             0             1 
    12 Xij[1,3,6]   *              0             0             1 
    13 Xij[1,4,1]   *              0             0             1 
    14 Xij[1,4,2]   *              0             0             1 
    15 Xij[1,4,5]   *              0             0             1 
    16 Xij[1,4,6]   *              0             0             1 
    17 Xij[1,5,1]   *              0             0             1 
    18 Xij[1,5,2]   *              0             0             1 
    19 Xij[1,5,6]   *              0             0             1 
    20 Xij[1,6,1]   *              0             0             1 
    21 Xij[1,6,2]   *              0             0             1 
    22 Xij[2,1,3]   *              1             0             1 
    23 Xij[2,1,4]   *              1             0             1 
    24 Xij[2,1,5]   *              0             0             1 
    25 Xij[2,1,6]   *              0             0             1 
    26 Xij[2,2,3]   *              0             0             1 
    27 Xij[2,2,4]   *              0             0             1 
    28 Xij[2,2,5]   *              0             0             1 
    29 Xij[2,2,6]   *              0             0             1 
    30 Xij[2,3,1]   *              0             0             1 
    31 Xij[2,3,2]   *              0             0             1 
    32 Xij[2,3,5]   *              1             0             1 
    33 Xij[2,3,6]   *              0             0             1 
    34 Xij[2,4,1]   *              1             0             1 
    35 Xij[2,4,2]   *              0             0             1 
    36 Xij[2,4,5]   *              0             0             1 
    37 Xij[2,4,6]   *              0             0             1 
    38 Xij[2,5,1]   *              0             0             1 
    39 Xij[2,5,2]   *              0             0             1 
    40 Xij[2,5,6]   *              1             0             1 
    41 Xij[2,6,1]   *              1             0             1 
    42 Xij[2,6,2]   *              0             0             1 
    43 teste                   20387         20387             = 

Integer feasibility conditions:

KKT.PE: max.abs.err = 0.00e+00 on row 0
        max.rel.err = 0.00e+00 on row 0
        High quality

KKT.PB: max.abs.err = 0.00e+00 on row 0
        max.rel.err = 0.00e+00 on row 0
        High quality

End of output
